% File represents an instance of a Composite Structure problem to be solved by a CP framework
% Created on 2025-03-26 10:41:24.257
T = 50;
n = 16;
m = 24;
edges = [(1, 2),
(5, 6),
(9, 10),
(13, 14),
(2, 3),
(6, 7),
(10, 11),
(14, 15),
(4, 3),
(8, 7),
(12, 11),
(15, 16),
(5, 1),
(5, 9),
(13, 9),
(6, 2),
(6, 10),
(14, 10),
(7, 3),
(7, 11),
(15, 11),
(8, 4),
(8, 12),
(12, 16)];
counts = [|6, 16, 6, 16,
|6, 14, 6, 12,
|6, 14, 6, 6,
|6, 16, 6, 8,
|6, 18, 6, 20,
|6, 16, 6, 16,
|6, 14, 6, 12,
|6, 16, 6, 12,
|4, 16, 4, 20,
|4, 14, 4, 16,
|4, 12, 4, 12,
|4, 14, 4, 12,
|4, 18, 4, 20,
|4, 14, 4, 18,
|4, 14, 4, 12,
|4, 12, 4, 10|];
